
Gurobi 9.5.2 (mac64[arm]) logging started Wed Apr 19 12:35:53 2023

Set parameter LogFile to value "Java/output/pure_mip/scenario_seed_0_nJob_30_machineCount_1/mip_increment_5/log.txt"
Gurobi Optimizer version 9.5.2 build v9.5.2rc0 (mac64[arm])
Thread count: 8 physical cores, 8 logical processors, using up to 8 threads
Optimize a model with 468 rows, 4836 columns and 21375 nonzeros
Model fingerprint: 0x6d6ee0b1
Variable types: 0 continuous, 4836 integer (4836 binary)
Coefficient statistics:
  Matrix range     [1e+00, 3e+02]
  Objective range  [4e+00, 7e+06]
  Bounds range     [1e+00, 1e+00]
  RHS range        [1e+00, 1e+00]
Presolve removed 17 rows and 533 columns
Presolve time: 0.03s
Presolved: 451 rows, 4303 columns, 18959 nonzeros
Variable types: 0 continuous, 4303 integer (4303 binary)

Root relaxation: objective 1.594133e+04, 3365 iterations, 0.09 seconds (0.15 work units)

    Nodes    |    Current Node    |     Objective Bounds      |     Work
 Expl Unexpl |  Obj  Depth IntInf | Incumbent    BestBd   Gap | It/Node Time

     0     0 15941.3333    0  170          - 15941.3333      -     -    0s
H    0     0                    3.421937e+07 15941.3333   100%     -    0s
H    0     0                    2.814579e+07 15941.3333   100%     -    0s
H    0     0                    2.688577e+07 15941.3333   100%     -    0s
H    0     0                    1.294770e+07 15941.3333   100%     -    0s
H    0     0                    1.224948e+07 15941.3333   100%     -    0s
H    0     0                    1.224861e+07 16692.3686   100%     -    0s
     0     0 16692.3686    0  283 1.2249e+07 16692.3686   100%     -    0s
H    0     0                    1.194100e+07 16692.3686   100%     -    0s
     0     0 16726.6541    0  299 1.1941e+07 16726.6541   100%     -    0s
     0     0 16726.6541    0  296 1.1941e+07 16726.6541   100%     -    0s
     0     0 17549.9739    0  315 1.1941e+07 17549.9739   100%     -    0s
H    0     0                    1.029930e+07 17549.9739   100%     -    0s
     0     0 17611.7762    0  337 1.0299e+07 17611.7762   100%     -    0s
     0     0 17612.1781    0  341 1.0299e+07 17612.1781   100%     -    0s
     0     0 26430.7953    0  336 1.0299e+07 26430.7953   100%     -    0s
H    0     0                    1.029927e+07 26430.7953   100%     -    0s
H    0     0                    1.012471e+07 26430.7953   100%     -    0s
H    0     0                    9498658.0000 26430.7953   100%     -    0s
     0     0 26509.3297    0  340 9498658.00 26509.3297   100%     -    0s
     0     0 26522.5331    0  345 9498658.00 26522.5331   100%     -    0s
     0     0 26525.3908    0  355 9498658.00 26525.3908   100%     -    0s
     0     0 31443.1779    0  357 9498658.00 31443.1779   100%     -    0s
H    0     0                    8511528.0000 31443.1779   100%     -    0s
H    0     0                    8511483.0000 31443.1779   100%     -    0s
     0     0 31484.2939    0  368 8511483.00 31484.2939   100%     -    0s
     0     0 31502.3397    0  362 8511483.00 31502.3397   100%     -    0s
     0     0 31508.0725    0  361 8511483.00 31508.0725   100%     -    0s
     0     0 38662.9691    0  336 8511483.00 38662.9691   100%     -    1s
H    0     0                    5243323.0000 38662.9691  99.3%     -    1s
     0     0 39622.3693    0  373 5243323.00 39622.3693  99.2%     -    1s
     0     0 40113.0478    0  383 5243323.00 40113.0478  99.2%     -    1s
     0     0 40161.3955    0  389 5243323.00 40161.3955  99.2%     -    1s
     0     0 40171.6375    0  391 5243323.00 40171.6375  99.2%     -    1s
     0     0 45382.6666    0  395 5243323.00 45382.6666  99.1%     -    1s
H    0     0                    4762563.0000 45382.6666  99.0%     -    1s
H    0     0                    4762363.0000 45382.6666  99.0%     -    1s
     0     0 45975.1467    0  391 4762363.00 45975.1467  99.0%     -    1s
     0     0 46079.2204    0  403 4762363.00 46079.2204  99.0%     -    1s
     0     0 46193.4048    0  417 4762363.00 46193.4048  99.0%     -    1s
     0     0 46259.7964    0  412 4762363.00 46259.7964  99.0%     -    1s
     0     0 46259.8548    0  416 4762363.00 46259.8548  99.0%     -    1s
     0     0 51902.5563    0  413 4762363.00 51902.5563  98.9%     -    2s
     0     0 52220.5241    0  417 4762363.00 52220.5241  98.9%     -    2s
     0     0 52274.6197    0  415 4762363.00 52274.6197  98.9%     -    2s
     0     0 52313.9788    0  447 4762363.00 52313.9788  98.9%     -    2s
H    0     0                    1829168.0000 60021.3495  96.7%     -    2s
     0     0 60021.3495    0  409 1829168.00 60021.3495  96.7%     -    2s
H    0     0                    1801458.0000 60021.3495  96.7%     -    2s
H    0     0                    1801373.0000 60021.3495  96.7%     -    2s
     0     0 60363.6812    0  439 1801373.00 60363.6812  96.6%     -    2s
     0     0 60401.6261    0  443 1801373.00 60401.6261  96.6%     -    2s
H    0     0                    689518.00000 63504.2407  90.8%     -    3s
     0     0 63504.2407    0  423 689518.000 63504.2407  90.8%     -    3s
H    0     0                    624163.00000 63504.2407  89.8%     -    3s
H    0     0                    614778.00000 63504.2407  89.7%     -    3s
H    0     0                    559373.00000 63835.4183  88.6%     -    3s
     0     0 63835.4183    0  425 559373.000 63835.4183  88.6%     -    3s
     0     0 63847.8616    0  437 559373.000 63847.8616  88.6%     -    3s
H    0     0                    540248.00000 70074.9551  87.0%     -    3s
H    0     0                    425438.00000 70074.9551  83.5%     -    3s
H    0     0                    386033.00000 70074.9551  81.8%     -    3s
H    0     0                    385153.00000 70074.9551  81.8%     -    3s
     0     0 70074.9551    0  415 385153.000 70074.9551  81.8%     -    3s
H    0     0                    385143.00000 70074.9551  81.8%     -    3s
     0     0 70925.0578    0  426 385143.000 70925.0578  81.6%     -    3s
H    0     0                    316613.00000 71196.1982  77.5%     -    3s
     0     0 71196.1982    0  413 316613.000 71196.1982  77.5%     -    3s
     0     0 71248.0311    0  423 316613.000 71248.0311  77.5%     -    3s
     0     0 72231.9587    0  447 316613.000 72231.9587  77.2%     -    4s
H    0     0                    106788.00000 72231.9587  32.4%     -    4s
     0     0 73362.8011    0  449 106788.000 73362.8011  31.3%     -    4s
     0     0 73381.4417    0  461 106788.000 73381.4417  31.3%     -    4s
     0     0 75283.3700    0  405 106788.000 75283.3700  29.5%     -    4s
     0     0 75283.3700    0  212 106788.000 75283.3700  29.5%     -    4s
     0     0 75283.3700    0  305 106788.000 75283.3700  29.5%     -    4s
     0     0 75283.3700    0  337 106788.000 75283.3700  29.5%     -    4s
     0     0 75332.4622    0  339 106788.000 75332.4622  29.5%     -    4s
     0     0 75408.8457    0  382 106788.000 75408.8457  29.4%     -    4s
     0     0 75583.8472    0  399 106788.000 75583.8472  29.2%     -    4s
     0     0 76139.1504    0  415 106788.000 76139.1504  28.7%     -    4s
     0     0 76140.6401    0  410 106788.000 76140.6401  28.7%     -    4s
     0     0 77502.8308    0  229 106788.000 77502.8308  27.4%     -    5s
H    0     0                    106783.00000 77502.8308  27.4%     -    5s
     0     0 77503.9511    0  224 106783.000 77503.9511  27.4%     -    5s
     0     0 77536.2489    0  285 106783.000 77536.2489  27.4%     -    5s
     0     0 77536.2489    0  266 106783.000 77536.2489  27.4%     -    5s
H    0     0                    106733.00000 77536.2489  27.4%     -    5s
     0     2 77537.5302    0  262 106733.000 77537.5302  27.4%     -    5s
H   32    40                    77788.000000 77545.4907  0.31%   476    5s
H   33    40                    77738.000000 77545.4907  0.25%   469    5s
H   34    40                    77708.000000 77545.5134  0.21%   463    5s
H   67    58                    77698.000000 77549.0978  0.19%   369    6s
H   71    58                    77688.000000 77549.0978  0.18%   369    6s
H  159   116                    77683.000000 77549.0978  0.17%   265    6s
H  170   125                    77678.000000 77549.0978  0.17%   256    6s
H  202   144                    77663.000000 77549.0978  0.15%   242    6s
H  245   160                    77658.000000 77557.2199  0.13%   224    6s
H 1507   533                    77653.000000 77595.0747  0.07%   142    7s
H 1708   449                    77638.000000 77601.7198  0.05%   138    8s

Cutting planes:
  Gomory: 18
  Cover: 45
  Clique: 82
  MIR: 118
  StrongCG: 53
  GUB cover: 129
  Inf proof: 3
  Zero half: 22

Explored 2615 nodes (374878 simplex iterations) in 8.59 seconds (15.88 work units)
Thread count was 8 (of 8 available processors)

Solution count 10: 77638 77653 77658 ... 77738

Optimal solution found (tolerance 1.00e-04)
Best objective 7.763800000000e+04, best bound 7.763100000000e+04, gap 0.0090%
